N=60;
D=5;
K=2;
S=45;
B=100;
M=[1 1];
MM=[5 5];
ND=2;
T=20;
C=[
10	2
10	2
10	2
10	2
10	2
];
beta=[
1	1	0	0	0	0	1	1	0	0	0	0	0	0	0	0	0	0	0	0	0	0	0	0	0	0	0	0	0	0	0	0	0	0	0	0	0	0	0	0	0	0	0	0	0	0	0	0	0	0	0	0	0	0	0	0	0	0	0	0
0	1	1	0	0	0	0	1	1	0	0	0	0	0	0	0	0	0	0	0	0	0	0	0	0	0	0	0	0	0	0	0	0	0	0	0	0	0	0	0	0	0	0	0	0	0	0	0	0	0	0	0	0	0	0	0	0	0	0	0
0	0	1	1	0	0	0	0	1	1	0	0	0	0	0	0	0	0	0	0	0	0	0	0	0	0	0	0	0	0	0	0	0	0	0	0	0	0	0	0	0	0	0	0	0	0	0	0	0	0	0	0	0	0	0	0	0	0	0	0
0	0	0	1	1	0	0	0	0	1	1	0	0	0	0	0	0	0	0	0	0	0	0	0	0	0	0	0	0	0	0	0	0	0	0	0	0	0	0	0	0	0	0	0	0	0	0	0	0	0	0	0	0	0	0	0	0	0	0	0
0	0	0	0	1	1	0	0	0	0	1	1	0	0	0	0	0	0	0	0	0	0	0	0	0	0	0	0	0	0	0	0	0	0	0	0	0	0	0	0	0	0	0	0	0	0	0	0	0	0	0	0	0	0	0	0	0	0	0	0
0	0	0	0	0	0	1	1	0	0	0	0	1	1	0	0	0	0	0	0	0	0	0	0	0	0	0	0	0	0	0	0	0	0	0	0	0	0	0	0	0	0	0	0	0	0	0	0	0	0	0	0	0	0	0	0	0	0	0	0
0	0	0	0	0	0	0	1	1	0	0	0	0	1	1	0	0	0	0	0	0	0	0	0	0	0	0	0	0	0	0	0	0	0	0	0	0	0	0	0	0	0	0	0	0	0	0	0	0	0	0	0	0	0	0	0	0	0	0	0
0	0	0	0	0	0	0	0	1	1	0	0	0	0	1	1	0	0	0	0	0	0	0	0	0	0	0	0	0	0	0	0	0	0	0	0	0	0	0	0	0	0	0	0	0	0	0	0	0	0	0	0	0	0	0	0	0	0	0	0
0	0	0	0	0	0	0	0	0	1	1	0	0	0	0	1	1	0	0	0	0	0	0	0	0	0	0	0	0	0	0	0	0	0	0	0	0	0	0	0	0	0	0	0	0	0	0	0	0	0	0	0	0	0	0	0	0	0	0	0
0	0	0	0	0	0	0	0	0	0	1	1	0	0	0	0	1	1	0	0	0	0	0	0	0	0	0	0	0	0	0	0	0	0	0	0	0	0	0	0	0	0	0	0	0	0	0	0	0	0	0	0	0	0	0	0	0	0	0	0
0	0	0	0	0	0	0	0	0	0	0	0	1	1	0	0	0	0	1	1	0	0	0	0	0	0	0	0	0	0	0	0	0	0	0	0	0	0	0	0	0	0	0	0	0	0	0	0	0	0	0	0	0	0	0	0	0	0	0	0
0	0	0	0	0	0	0	0	0	0	0	0	0	1	1	0	0	0	0	1	1	0	0	0	0	0	0	0	0	0	0	0	0	0	0	0	0	0	0	0	0	0	0	0	0	0	0	0	0	0	0	0	0	0	0	0	0	0	0	0
0	0	0	0	0	0	0	0	0	0	0	0	0	0	1	1	0	0	0	0	1	1	0	0	0	0	0	0	0	0	0	0	0	0	0	0	0	0	0	0	0	0	0	0	0	0	0	0	0	0	0	0	0	0	0	0	0	0	0	0
0	0	0	0	0	0	0	0	0	0	0	0	0	0	0	1	1	0	0	0	0	1	1	0	0	0	0	0	0	0	0	0	0	0	0	0	0	0	0	0	0	0	0	0	0	0	0	0	0	0	0	0	0	0	0	0	0	0	0	0
0	0	0	0	0	0	0	0	0	0	0	0	0	0	0	0	1	1	0	0	0	0	1	1	0	0	0	0	0	0	0	0	0	0	0	0	0	0	0	0	0	0	0	0	0	0	0	0	0	0	0	0	0	0	0	0	0	0	0	0
0	0	0	0	0	0	0	0	0	0	0	0	0	0	0	0	0	0	1	1	0	0	0	0	1	1	0	0	0	0	0	0	0	0	0	0	0	0	0	0	0	0	0	0	0	0	0	0	0	0	0	0	0	0	0	0	0	0	0	0
0	0	0	0	0	0	0	0	0	0	0	0	0	0	0	0	0	0	0	1	1	0	0	0	0	1	1	0	0	0	0	0	0	0	0	0	0	0	0	0	0	0	0	0	0	0	0	0	0	0	0	0	0	0	0	0	0	0	0	0
0	0	0	0	0	0	0	0	0	0	0	0	0	0	0	0	0	0	0	0	1	1	0	0	0	0	1	1	0	0	0	0	0	0	0	0	0	0	0	0	0	0	0	0	0	0	0	0	0	0	0	0	0	0	0	0	0	0	0	0
0	0	0	0	0	0	0	0	0	0	0	0	0	0	0	0	0	0	0	0	0	1	1	0	0	0	0	1	1	0	0	0	0	0	0	0	0	0	0	0	0	0	0	0	0	0	0	0	0	0	0	0	0	0	0	0	0	0	0	0
0	0	0	0	0	0	0	0	0	0	0	0	0	0	0	0	0	0	0	0	0	0	1	1	0	0	0	0	1	1	0	0	0	0	0	0	0	0	0	0	0	0	0	0	0	0	0	0	0	0	0	0	0	0	0	0	0	0	0	0
0	0	0	0	0	0	0	0	0	0	0	0	0	0	0	0	0	0	0	0	0	0	0	0	1	1	0	0	0	0	1	1	0	0	0	0	0	0	0	0	0	0	0	0	0	0	0	0	0	0	0	0	0	0	0	0	0	0	0	0
0	0	0	0	0	0	0	0	0	0	0	0	0	0	0	0	0	0	0	0	0	0	0	0	0	1	1	0	0	0	0	1	1	0	0	0	0	0	0	0	0	0	0	0	0	0	0	0	0	0	0	0	0	0	0	0	0	0	0	0
0	0	0	0	0	0	0	0	0	0	0	0	0	0	0	0	0	0	0	0	0	0	0	0	0	0	1	1	0	0	0	0	1	1	0	0	0	0	0	0	0	0	0	0	0	0	0	0	0	0	0	0	0	0	0	0	0	0	0	0
0	0	0	0	0	0	0	0	0	0	0	0	0	0	0	0	0	0	0	0	0	0	0	0	0	0	0	1	1	0	0	0	0	1	1	0	0	0	0	0	0	0	0	0	0	0	0	0	0	0	0	0	0	0	0	0	0	0	0	0
0	0	0	0	0	0	0	0	0	0	0	0	0	0	0	0	0	0	0	0	0	0	0	0	0	0	0	0	1	1	0	0	0	0	1	1	0	0	0	0	0	0	0	0	0	0	0	0	0	0	0	0	0	0	0	0	0	0	0	0
0	0	0	0	0	0	0	0	0	0	0	0	0	0	0	0	0	0	0	0	0	0	0	0	0	0	0	0	0	0	1	1	0	0	0	0	1	1	0	0	0	0	0	0	0	0	0	0	0	0	0	0	0	0	0	0	0	0	0	0
0	0	0	0	0	0	0	0	0	0	0	0	0	0	0	0	0	0	0	0	0	0	0	0	0	0	0	0	0	0	0	1	1	0	0	0	0	1	1	0	0	0	0	0	0	0	0	0	0	0	0	0	0	0	0	0	0	0	0	0
0	0	0	0	0	0	0	0	0	0	0	0	0	0	0	0	0	0	0	0	0	0	0	0	0	0	0	0	0	0	0	0	1	1	0	0	0	0	1	1	0	0	0	0	0	0	0	0	0	0	0	0	0	0	0	0	0	0	0	0
0	0	0	0	0	0	0	0	0	0	0	0	0	0	0	0	0	0	0	0	0	0	0	0	0	0	0	0	0	0	0	0	0	1	1	0	0	0	0	1	1	0	0	0	0	0	0	0	0	0	0	0	0	0	0	0	0	0	0	0
0	0	0	0	0	0	0	0	0	0	0	0	0	0	0	0	0	0	0	0	0	0	0	0	0	0	0	0	0	0	0	0	0	0	1	1	0	0	0	0	1	1	0	0	0	0	0	0	0	0	0	0	0	0	0	0	0	0	0	0
0	0	0	0	0	0	0	0	0	0	0	0	0	0	0	0	0	0	0	0	0	0	0	0	0	0	0	0	0	0	0	0	0	0	0	0	1	1	0	0	0	0	1	1	0	0	0	0	0	0	0	0	0	0	0	0	0	0	0	0
0	0	0	0	0	0	0	0	0	0	0	0	0	0	0	0	0	0	0	0	0	0	0	0	0	0	0	0	0	0	0	0	0	0	0	0	0	1	1	0	0	0	0	1	1	0	0	0	0	0	0	0	0	0	0	0	0	0	0	0
0	0	0	0	0	0	0	0	0	0	0	0	0	0	0	0	0	0	0	0	0	0	0	0	0	0	0	0	0	0	0	0	0	0	0	0	0	0	1	1	0	0	0	0	1	1	0	0	0	0	0	0	0	0	0	0	0	0	0	0
0	0	0	0	0	0	0	0	0	0	0	0	0	0	0	0	0	0	0	0	0	0	0	0	0	0	0	0	0	0	0	0	0	0	0	0	0	0	0	1	1	0	0	0	0	1	1	0	0	0	0	0	0	0	0	0	0	0	0	0
0	0	0	0	0	0	0	0	0	0	0	0	0	0	0	0	0	0	0	0	0	0	0	0	0	0	0	0	0	0	0	0	0	0	0	0	0	0	0	0	1	1	0	0	0	0	1	1	0	0	0	0	0	0	0	0	0	0	0	0
0	0	0	0	0	0	0	0	0	0	0	0	0	0	0	0	0	0	0	0	0	0	0	0	0	0	0	0	0	0	0	0	0	0	0	0	0	0	0	0	0	0	1	1	0	0	0	0	1	1	0	0	0	0	0	0	0	0	0	0
0	0	0	0	0	0	0	0	0	0	0	0	0	0	0	0	0	0	0	0	0	0	0	0	0	0	0	0	0	0	0	0	0	0	0	0	0	0	0	0	0	0	0	1	1	0	0	0	0	1	1	0	0	0	0	0	0	0	0	0
0	0	0	0	0	0	0	0	0	0	0	0	0	0	0	0	0	0	0	0	0	0	0	0	0	0	0	0	0	0	0	0	0	0	0	0	0	0	0	0	0	0	0	0	1	1	0	0	0	0	1	1	0	0	0	0	0	0	0	0
0	0	0	0	0	0	0	0	0	0	0	0	0	0	0	0	0	0	0	0	0	0	0	0	0	0	0	0	0	0	0	0	0	0	0	0	0	0	0	0	0	0	0	0	0	1	1	0	0	0	0	1	1	0	0	0	0	0	0	0
0	0	0	0	0	0	0	0	0	0	0	0	0	0	0	0	0	0	0	0	0	0	0	0	0	0	0	0	0	0	0	0	0	0	0	0	0	0	0	0	0	0	0	0	0	0	1	1	0	0	0	0	1	1	0	0	0	0	0	0
0	0	0	0	0	0	0	0	0	0	0	0	0	0	0	0	0	0	0	0	0	0	0	0	0	0	0	0	0	0	0	0	0	0	0	0	0	0	0	0	0	0	0	0	0	0	0	0	1	1	0	0	0	0	1	1	0	0	0	0
0	0	0	0	0	0	0	0	0	0	0	0	0	0	0	0	0	0	0	0	0	0	0	0	0	0	0	0	0	0	0	0	0	0	0	0	0	0	0	0	0	0	0	0	0	0	0	0	0	1	1	0	0	0	0	1	1	0	0	0
0	0	0	0	0	0	0	0	0	0	0	0	0	0	0	0	0	0	0	0	0	0	0	0	0	0	0	0	0	0	0	0	0	0	0	0	0	0	0	0	0	0	0	0	0	0	0	0	0	0	1	1	0	0	0	0	1	1	0	0
0	0	0	0	0	0	0	0	0	0	0	0	0	0	0	0	0	0	0	0	0	0	0	0	0	0	0	0	0	0	0	0	0	0	0	0	0	0	0	0	0	0	0	0	0	0	0	0	0	0	0	1	1	0	0	0	0	1	1	0
0	0	0	0	0	0	0	0	0	0	0	0	0	0	0	0	0	0	0	0	0	0	0	0	0	0	0	0	0	0	0	0	0	0	0	0	0	0	0	0	0	0	0	0	0	0	0	0	0	0	0	0	1	1	0	0	0	0	1	1
];
alfa=[
0	0	0	0	1	1	0	0	0	0	1	1	0	0	0	0	1	1	0	0	0	0	0	0	0	0	0	0	0	0	0	0	0	0	0	0	0	0	0	0	0	0	0	0	0	0	0	0	0	0	0	0	0	0	0	0	0	0	0	0
0	0	0	0	0	0	0	0	0	0	0	1	0	0	0	0	0	0	0	0	0	0	0	0	0	0	0	0	0	0	0	0	0	0	0	0	0	0	0	0	0	0	0	0	0	0	0	0	0	0	0	0	0	0	0	0	0	0	0	0
0	0	0	0	0	0	0	0	0	0	0	0	0	0	0	0	0	0	1	1	0	0	0	0	1	1	0	0	0	0	1	1	0	0	0	0	0	0	0	0	0	0	0	0	0	0	0	0	0	0	0	0	0	0	0	0	0	0	0	0
0	0	0	0	0	0	0	0	0	0	0	0	0	0	0	0	0	0	0	0	0	0	0	0	1	0	0	0	0	0	0	0	0	0	0	0	0	0	0	0	0	0	0	0	0	0	0	0	0	0	0	0	0	0	0	0	0	0	0	0
0	0	0	0	0	0	0	0	0	0	0	0	0	0	0	0	0	0	0	0	0	1	1	1	0	0	0	1	1	1	0	0	0	1	1	1	0	0	0	0	0	0	0	0	0	0	0	0	0	0	0	0	0	0	0	0	0	0	0	0
0	0	0	0	0	0	0	0	0	0	0	0	0	0	0	0	0	0	0	0	0	0	0	0	0	0	0	0	1	0	0	0	0	0	0	0	0	0	0	0	0	0	0	0	0	0	0	0	0	0	0	0	0	0	0	0	0	0	0	0
0	0	0	0	0	0	0	0	0	0	0	0	0	0	0	0	0	0	0	0	0	0	0	0	0	0	0	0	0	0	0	0	0	0	0	0	0	1	1	1	0	0	0	1	1	1	0	0	0	1	1	1	0	0	0	0	0	0	0	0
0	0	0	0	0	0	0	0	0	0	0	0	0	0	0	0	0	0	0	0	0	0	0	0	0	0	0	0	0	0	0	0	0	0	0	0	0	0	0	0	0	0	0	0	1	0	0	0	0	0	0	0	0	0	0	0	0	0	0	0
0	0	0	0	0	0	0	0	0	0	0	0	0	0	0	0	0	0	0	0	0	0	0	0	0	0	0	0	0	0	0	0	0	0	0	0	0	0	0	0	0	0	0	0	1	1	1	0	0	0	1	1	1	0	0	0	1	1	1	0
0	0	0	0	0	0	0	0	0	0	0	0	0	0	0	0	0	0	0	0	0	0	0	0	0	0	0	0	0	0	0	0	0	0	0	0	0	0	0	0	0	0	0	0	0	0	0	0	0	0	0	1	0	0	0	0	0	0	0	0
];
t=[
5.83	3.16	6.71	7.28	4.53	3.54	2.55	1.58	0.71	4.53	3.54	2.55	1.58	0.71	4.74	3.81	2.92	2.12	1.58	5.15	4.30	3.54	2.92	2.55	5.70	4.95	4.30	3.81	3.54	6.36	5.70	5.15	4.74	4.53	7.11	6.52	6.04	5.70	5.52	7.91	7.38	6.96	6.67	6.52	8.75	8.28	7.91	7.65	7.52
5.83	4.00	3.61	5.00	3.54	3.81	4.30	4.95	5.70	2.55	2.92	3.54	4.30	5.15	1.58	2.12	2.92	3.81	4.74	0.71	1.58	2.55	3.54	4.53	0.71	1.58	2.55	3.54	4.53	1.58	2.12	2.92	3.81	4.74	2.55	2.92	3.54	4.30	5.15	3.54	3.81	4.30	4.95	5.70	4.53	4.74	5.15	5.70	6.36
3.16	4.00	3.61	4.12	4.95	4.30	3.81	3.54	3.54	4.30	3.54	2.92	2.55	2.55	3.81	2.92	2.12	1.58	1.58	3.54	2.55	1.58	0.71	0.71	3.54	2.55	1.58	0.71	0.71	3.81	2.92	2.12	1.58	1.58	4.30	3.54	2.92	2.55	2.55	4.95	4.30	3.81	3.54	3.54	5.70	5.15	4.74	4.53	4.53
6.71	3.61	3.61	1.41	6.67	6.52	6.52	6.67	6.96	5.70	5.52	5.52	5.70	6.04	4.74	4.53	4.53	4.74	5.15	3.81	3.54	3.54	3.81	4.30	2.92	2.55	2.55	2.92	3.54	2.12	1.58	1.58	2.12	2.92	1.58	0.71	0.71	1.58	2.55	1.58	0.71	0.71	1.58	2.55	2.12	1.58	1.58	2.12	2.92
7.28	5.00	4.12	1.41	7.91	7.65	7.52	7.52	7.65	6.96	6.67	6.52	6.52	6.67	6.04	5.70	5.52	5.52	5.70	5.15	4.74	4.53	4.53	4.74	4.30	3.81	3.54	3.54	3.81	3.54	2.92	2.55	2.55	2.92	2.92	2.12	1.58	1.58	2.12	2.55	1.58	0.71	0.71	1.58	2.55	1.58	0.71	0.71	1.58
4.53	3.54	4.95	6.67	7.91	1.00	2.00	3.00	4.00	1.00	1.41	2.24	3.16	4.12	2.00	2.24	2.83	3.61	4.47	3.00	3.16	3.61	4.24	5.00	4.00	4.12	4.47	5.00	5.66	5.00	5.10	5.39	5.83	6.40	6.00	6.08	6.32	6.71	7.21	7.00	7.07	7.28	7.62	8.06	8.00	8.06	8.25	8.54	8.94
3.54	3.81	4.30	6.52	7.65	1.00	1.00	2.00	3.00	1.41	1.00	1.41	2.24	3.16	2.24	2.00	2.24	2.83	3.61	3.16	3.00	3.16	3.61	4.24	4.12	4.00	4.12	4.47	5.00	5.10	5.00	5.10	5.39	5.83	6.08	6.00	6.08	6.32	6.71	7.07	7.00	7.07	7.28	7.62	8.06	8.00	8.06	8.25	8.54
2.55	4.30	3.81	6.52	7.52	2.00	1.00	1.00	2.00	2.24	1.41	1.00	1.41	2.24	2.83	2.24	2.00	2.24	2.83	3.61	3.16	3.00	3.16	3.61	4.47	4.12	4.00	4.12	4.47	5.39	5.10	5.00	5.10	5.39	6.32	6.08	6.00	6.08	6.32	7.28	7.07	7.00	7.07	7.28	8.25	8.06	8.00	8.06	8.25
1.58	4.95	3.54	6.67	7.52	3.00	2.00	1.00	1.00	3.16	2.24	1.41	1.00	1.41	3.61	2.83	2.24	2.00	2.24	4.24	3.61	3.16	3.00	3.16	5.00	4.47	4.12	4.00	4.12	5.83	5.39	5.10	5.00	5.10	6.71	6.32	6.08	6.00	6.08	7.62	7.28	7.07	7.00	7.07	8.54	8.25	8.06	8.00	8.06
0.71	5.70	3.54	6.96	7.65	4.00	3.00	2.00	1.00	4.12	3.16	2.24	1.41	1.00	4.47	3.61	2.83	2.24	2.00	5.00	4.24	3.61	3.16	3.00	5.66	5.00	4.47	4.12	4.00	6.40	5.83	5.39	5.10	5.00	7.21	6.71	6.32	6.08	6.00	8.06	7.62	7.28	7.07	7.00	8.94	8.54	8.25	8.06	8.00
4.53	2.55	4.30	5.70	6.96	1.00	1.41	2.24	3.16	4.12	1.00	2.00	3.00	4.00	1.00	1.41	2.24	3.16	4.12	2.00	2.24	2.83	3.61	4.47	3.00	3.16	3.61	4.24	5.00	4.00	4.12	4.47	5.00	5.66	5.00	5.10	5.39	5.83	6.40	6.00	6.08	6.32	6.71	7.21	7.00	7.07	7.28	7.62	8.06
3.54	2.92	3.54	5.52	6.67	1.41	1.00	1.41	2.24	3.16	1.00	1.00	2.00	3.00	1.41	1.00	1.41	2.24	3.16	2.24	2.00	2.24	2.83	3.61	3.16	3.00	3.16	3.61	4.24	4.12	4.00	4.12	4.47	5.00	5.10	5.00	5.10	5.39	5.83	6.08	6.00	6.08	6.32	6.71	7.07	7.00	7.07	7.28	7.62
2.55	3.54	2.92	5.52	6.52	2.24	1.41	1.00	1.41	2.24	2.00	1.00	1.00	2.00	2.24	1.41	1.00	1.41	2.24	2.83	2.24	2.00	2.24	2.83	3.61	3.16	3.00	3.16	3.61	4.47	4.12	4.00	4.12	4.47	5.39	5.10	5.00	5.10	5.39	6.32	6.08	6.00	6.08	6.32	7.28	7.07	7.00	7.07	7.28
1.58	4.30	2.55	5.70	6.52	3.16	2.24	1.41	1.00	1.41	3.00	2.00	1.00	1.00	3.16	2.24	1.41	1.00	1.41	3.61	2.83	2.24	2.00	2.24	4.24	3.61	3.16	3.00	3.16	5.00	4.47	4.12	4.00	4.12	5.83	5.39	5.10	5.00	5.10	6.71	6.32	6.08	6.00	6.08	7.62	7.28	7.07	7.00	7.07
0.71	5.15	2.55	6.04	6.67	4.12	3.16	2.24	1.41	1.00	4.00	3.00	2.00	1.00	4.12	3.16	2.24	1.41	1.00	4.47	3.61	2.83	2.24	2.00	5.00	4.24	3.61	3.16	3.00	5.66	5.00	4.47	4.12	4.00	6.40	5.83	5.39	5.10	5.00	7.21	6.71	6.32	6.08	6.00	8.06	7.62	7.28	7.07	7.00
4.74	1.58	3.81	4.74	6.04	2.00	2.24	2.83	3.61	4.47	1.00	1.41	2.24	3.16	4.12	1.00	2.00	3.00	4.00	1.00	1.41	2.24	3.16	4.12	2.00	2.24	2.83	3.61	4.47	3.00	3.16	3.61	4.24	5.00	4.00	4.12	4.47	5.00	5.66	5.00	5.10	5.39	5.83	6.40	6.00	6.08	6.32	6.71	7.21
3.81	2.12	2.92	4.53	5.70	2.24	2.00	2.24	2.83	3.61	1.41	1.00	1.41	2.24	3.16	1.00	1.00	2.00	3.00	1.41	1.00	1.41	2.24	3.16	2.24	2.00	2.24	2.83	3.61	3.16	3.00	3.16	3.61	4.24	4.12	4.00	4.12	4.47	5.00	5.10	5.00	5.10	5.39	5.83	6.08	6.00	6.08	6.32	6.71
2.92	2.92	2.12	4.53	5.52	2.83	2.24	2.00	2.24	2.83	2.24	1.41	1.00	1.41	2.24	2.00	1.00	1.00	2.00	2.24	1.41	1.00	1.41	2.24	2.83	2.24	2.00	2.24	2.83	3.61	3.16	3.00	3.16	3.61	4.47	4.12	4.00	4.12	4.47	5.39	5.10	5.00	5.10	5.39	6.32	6.08	6.00	6.08	6.32
2.12	3.81	1.58	4.74	5.52	3.61	2.83	2.24	2.00	2.24	3.16	2.24	1.41	1.00	1.41	3.00	2.00	1.00	1.00	3.16	2.24	1.41	1.00	1.41	3.61	2.83	2.24	2.00	2.24	4.24	3.61	3.16	3.00	3.16	5.00	4.47	4.12	4.00	4.12	5.83	5.39	5.10	5.00	5.10	6.71	6.32	6.08	6.00	6.08
1.58	4.74	1.58	5.15	5.70	4.47	3.61	2.83	2.24	2.00	4.12	3.16	2.24	1.41	1.00	4.00	3.00	2.00	1.00	4.12	3.16	2.24	1.41	1.00	4.47	3.61	2.83	2.24	2.00	5.00	4.24	3.61	3.16	3.00	5.66	5.00	4.47	4.12	4.00	6.40	5.83	5.39	5.10	5.00	7.21	6.71	6.32	6.08	6.00
5.15	0.71	3.54	3.81	5.15	3.00	3.16	3.61	4.24	5.00	2.00	2.24	2.83	3.61	4.47	1.00	1.41	2.24	3.16	4.12	1.00	2.00	3.00	4.00	1.00	1.41	2.24	3.16	4.12	2.00	2.24	2.83	3.61	4.47	3.00	3.16	3.61	4.24	5.00	4.00	4.12	4.47	5.00	5.66	5.00	5.10	5.39	5.83	6.40
4.30	1.58	2.55	3.54	4.74	3.16	3.00	3.16	3.61	4.24	2.24	2.00	2.24	2.83	3.61	1.41	1.00	1.41	2.24	3.16	1.00	1.00	2.00	3.00	1.41	1.00	1.41	2.24	3.16	2.24	2.00	2.24	2.83	3.61	3.16	3.00	3.16	3.61	4.24	4.12	4.00	4.12	4.47	5.00	5.10	5.00	5.10	5.39	5.83
3.54	2.55	1.58	3.54	4.53	3.61	3.16	3.00	3.16	3.61	2.83	2.24	2.00	2.24	2.83	2.24	1.41	1.00	1.41	2.24	2.00	1.00	1.00	2.00	2.24	1.41	1.00	1.41	2.24	2.83	2.24	2.00	2.24	2.83	3.61	3.16	3.00	3.16	3.61	4.47	4.12	4.00	4.12	4.47	5.39	5.10	5.00	5.10	5.39
2.92	3.54	0.71	3.81	4.53	4.24	3.61	3.16	3.00	3.16	3.61	2.83	2.24	2.00	2.24	3.16	2.24	1.41	1.00	1.41	3.00	2.00	1.00	1.00	3.16	2.24	1.41	1.00	1.41	3.61	2.83	2.24	2.00	2.24	4.24	3.61	3.16	3.00	3.16	5.00	4.47	4.12	4.00	4.12	5.83	5.39	5.10	5.00	5.10
2.55	4.53	0.71	4.30	4.74	5.00	4.24	3.61	3.16	3.00	4.47	3.61	2.83	2.24	2.00	4.12	3.16	2.24	1.41	1.00	4.00	3.00	2.00	1.00	4.12	3.16	2.24	1.41	1.00	4.47	3.61	2.83	2.24	2.00	5.00	4.24	3.61	3.16	3.00	5.66	5.00	4.47	4.12	4.00	6.40	5.83	5.39	5.10	5.00
5.70	0.71	3.54	2.92	4.30	4.00	4.12	4.47	5.00	5.66	3.00	3.16	3.61	4.24	5.00	2.00	2.24	2.83	3.61	4.47	1.00	1.41	2.24	3.16	4.12	1.00	2.00	3.00	4.00	1.00	1.41	2.24	3.16	4.12	2.00	2.24	2.83	3.61	4.47	3.00	3.16	3.61	4.24	5.00	4.00	4.12	4.47	5.00	5.66
4.95	1.58	2.55	2.55	3.81	4.12	4.00	4.12	4.47	5.00	3.16	3.00	3.16	3.61	4.24	2.24	2.00	2.24	2.83	3.61	1.41	1.00	1.41	2.24	3.16	1.00	1.00	2.00	3.00	1.41	1.00	1.41	2.24	3.16	2.24	2.00	2.24	2.83	3.61	3.16	3.00	3.16	3.61	4.24	4.12	4.00	4.12	4.47	5.00
4.30	2.55	1.58	2.55	3.54	4.47	4.12	4.00	4.12	4.47	3.61	3.16	3.00	3.16	3.61	2.83	2.24	2.00	2.24	2.83	2.24	1.41	1.00	1.41	2.24	2.00	1.00	1.00	2.00	2.24	1.41	1.00	1.41	2.24	2.83	2.24	2.00	2.24	2.83	3.61	3.16	3.00	3.16	3.61	4.47	4.12	4.00	4.12	4.47
3.81	3.54	0.71	2.92	3.54	5.00	4.47	4.12	4.00	4.12	4.24	3.61	3.16	3.00	3.16	3.61	2.83	2.24	2.00	2.24	3.16	2.24	1.41	1.00	1.41	3.00	2.00	1.00	1.00	3.16	2.24	1.41	1.00	1.41	3.61	2.83	2.24	2.00	2.24	4.24	3.61	3.16	3.00	3.16	5.00	4.47	4.12	4.00	4.12
3.54	4.53	0.71	3.54	3.81	5.66	5.00	4.47	4.12	4.00	5.00	4.24	3.61	3.16	3.00	4.47	3.61	2.83	2.24	2.00	4.12	3.16	2.24	1.41	1.00	4.00	3.00	2.00	1.00	4.12	3.16	2.24	1.41	1.00	4.47	3.61	2.83	2.24	2.00	5.00	4.24	3.61	3.16	3.00	5.66	5.00	4.47	4.12	4.00
6.36	1.58	3.81	2.12	3.54	5.00	5.10	5.39	5.83	6.40	4.00	4.12	4.47	5.00	5.66	3.00	3.16	3.61	4.24	5.00	2.00	2.24	2.83	3.61	4.47	1.00	1.41	2.24	3.16	4.12	1.00	2.00	3.00	4.00	1.00	1.41	2.24	3.16	4.12	2.00	2.24	2.83	3.61	4.47	3.00	3.16	3.61	4.24	5.00
5.70	2.12	2.92	1.58	2.92	5.10	5.00	5.10	5.39	5.83	4.12	4.00	4.12	4.47	5.00	3.16	3.00	3.16	3.61	4.24	2.24	2.00	2.24	2.83	3.61	1.41	1.00	1.41	2.24	3.16	1.00	1.00	2.00	3.00	1.41	1.00	1.41	2.24	3.16	2.24	2.00	2.24	2.83	3.61	3.16	3.00	3.16	3.61	4.24
5.15	2.92	2.12	1.58	2.55	5.39	5.10	5.00	5.10	5.39	4.47	4.12	4.00	4.12	4.47	3.61	3.16	3.00	3.16	3.61	2.83	2.24	2.00	2.24	2.83	2.24	1.41	1.00	1.41	2.24	2.00	1.00	1.00	2.00	2.24	1.41	1.00	1.41	2.24	2.83	2.24	2.00	2.24	2.83	3.61	3.16	3.00	3.16	3.61
4.74	3.81	1.58	2.12	2.55	5.83	5.39	5.10	5.00	5.10	5.00	4.47	4.12	4.00	4.12	4.24	3.61	3.16	3.00	3.16	3.61	2.83	2.24	2.00	2.24	3.16	2.24	1.41	1.00	1.41	3.00	2.00	1.00	1.00	3.16	2.24	1.41	1.00	1.41	3.61	2.83	2.24	2.00	2.24	4.24	3.61	3.16	3.00	3.16
4.53	4.74	1.58	2.92	2.92	6.40	5.83	5.39	5.10	5.00	5.66	5.00	4.47	4.12	4.00	5.00	4.24	3.61	3.16	3.00	4.47	3.61	2.83	2.24	2.00	4.12	3.16	2.24	1.41	1.00	4.00	3.00	2.00	1.00	4.12	3.16	2.24	1.41	1.00	4.47	3.61	2.83	2.24	2.00	5.00	4.24	3.61	3.16	3.00
7.11	2.55	4.30	1.58	2.92	6.00	6.08	6.32	6.71	7.21	5.00	5.10	5.39	5.83	6.40	4.00	4.12	4.47	5.00	5.66	3.00	3.16	3.61	4.24	5.00	2.00	2.24	2.83	3.61	4.47	1.00	1.41	2.24	3.16	4.12	1.00	2.00	3.00	4.00	1.00	1.41	2.24	3.16	4.12	2.00	2.24	2.83	3.61	4.47
6.52	2.92	3.54	0.71	2.12	6.08	6.00	6.08	6.32	6.71	5.10	5.00	5.10	5.39	5.83	4.12	4.00	4.12	4.47	5.00	3.16	3.00	3.16	3.61	4.24	2.24	2.00	2.24	2.83	3.61	1.41	1.00	1.41	2.24	3.16	1.00	1.00	2.00	3.00	1.41	1.00	1.41	2.24	3.16	2.24	2.00	2.24	2.83	3.61
6.04	3.54	2.92	0.71	1.58	6.32	6.08	6.00	6.08	6.32	5.39	5.10	5.00	5.10	5.39	4.47	4.12	4.00	4.12	4.47	3.61	3.16	3.00	3.16	3.61	2.83	2.24	2.00	2.24	2.83	2.24	1.41	1.00	1.41	2.24	2.00	1.00	1.00	2.00	2.24	1.41	1.00	1.41	2.24	2.83	2.24	2.00	2.24	2.83
5.70	4.30	2.55	1.58	1.58	6.71	6.32	6.08	6.00	6.08	5.83	5.39	5.10	5.00	5.10	5.00	4.47	4.12	4.00	4.12	4.24	3.61	3.16	3.00	3.16	3.61	2.83	2.24	2.00	2.24	3.16	2.24	1.41	1.00	1.41	3.00	2.00	1.00	1.00	3.16	2.24	1.41	1.00	1.41	3.61	2.83	2.24	2.00	2.24
5.52	5.15	2.55	2.55	2.12	7.21	6.71	6.32	6.08	6.00	6.40	5.83	5.39	5.10	5.00	5.66	5.00	4.47	4.12	4.00	5.00	4.24	3.61	3.16	3.00	4.47	3.61	2.83	2.24	2.00	4.12	3.16	2.24	1.41	1.00	4.00	3.00	2.00	1.00	4.12	3.16	2.24	1.41	1.00	4.47	3.61	2.83	2.24	2.00
7.91	3.54	4.95	1.58	2.55	7.00	7.07	7.28	7.62	8.06	6.00	6.08	6.32	6.71	7.21	5.00	5.10	5.39	5.83	6.40	4.00	4.12	4.47	5.00	5.66	3.00	3.16	3.61	4.24	5.00	2.00	2.24	2.83	3.61	4.47	1.00	1.41	2.24	3.16	4.12	1.00	2.00	3.00	4.00	1.00	1.41	2.24	3.16	4.12
7.38	3.81	4.30	0.71	1.58	7.07	7.00	7.07	7.28	7.62	6.08	6.00	6.08	6.32	6.71	5.10	5.00	5.10	5.39	5.83	4.12	4.00	4.12	4.47	5.00	3.16	3.00	3.16	3.61	4.24	2.24	2.00	2.24	2.83	3.61	1.41	1.00	1.41	2.24	3.16	1.00	1.00	2.00	3.00	1.41	1.00	1.41	2.24	3.16
6.96	4.30	3.81	0.71	0.71	7.28	7.07	7.00	7.07	7.28	6.32	6.08	6.00	6.08	6.32	5.39	5.10	5.00	5.10	5.39	4.47	4.12	4.00	4.12	4.47	3.61	3.16	3.00	3.16	3.61	2.83	2.24	2.00	2.24	2.83	2.24	1.41	1.00	1.41	2.24	2.00	1.00	1.00	2.00	2.24	1.41	1.00	1.41	2.24
6.67	4.95	3.54	1.58	0.71	7.62	7.28	7.07	7.00	7.07	6.71	6.32	6.08	6.00	6.08	5.83	5.39	5.10	5.00	5.10	5.00	4.47	4.12	4.00	4.12	4.24	3.61	3.16	3.00	3.16	3.61	2.83	2.24	2.00	2.24	3.16	2.24	1.41	1.00	1.41	3.00	2.00	1.00	1.00	3.16	2.24	1.41	1.00	1.41
6.52	5.70	3.54	2.55	1.58	8.06	7.62	7.28	7.07	7.00	7.21	6.71	6.32	6.08	6.00	6.40	5.83	5.39	5.10	5.00	5.66	5.00	4.47	4.12	4.00	5.00	4.24	3.61	3.16	3.00	4.47	3.61	2.83	2.24	2.00	4.12	3.16	2.24	1.41	1.00	4.00	3.00	2.00	1.00	4.12	3.16	2.24	1.41	1.00
8.75	4.53	5.70	2.12	2.55	8.00	8.06	8.25	8.54	8.94	7.00	7.07	7.28	7.62	8.06	6.00	6.08	6.32	6.71	7.21	5.00	5.10	5.39	5.83	6.40	4.00	4.12	4.47	5.00	5.66	3.00	3.16	3.61	4.24	5.00	2.00	2.24	2.83	3.61	4.47	1.00	1.41	2.24	3.16	4.12	1.00	2.00	3.00	4.00
8.28	4.74	5.15	1.58	1.58	8.06	8.00	8.06	8.25	8.54	7.07	7.00	7.07	7.28	7.62	6.08	6.00	6.08	6.32	6.71	5.10	5.00	5.10	5.39	5.83	4.12	4.00	4.12	4.47	5.00	3.16	3.00	3.16	3.61	4.24	2.24	2.00	2.24	2.83	3.61	1.41	1.00	1.41	2.24	3.16	1.00	1.00	2.00	3.00
7.91	5.15	4.74	1.58	0.71	8.25	8.06	8.00	8.06	8.25	7.28	7.07	7.00	7.07	7.28	6.32	6.08	6.00	6.08	6.32	5.39	5.10	5.00	5.10	5.39	4.47	4.12	4.00	4.12	4.47	3.61	3.16	3.00	3.16	3.61	2.83	2.24	2.00	2.24	2.83	2.24	1.41	1.00	1.41	2.24	2.00	1.00	1.00	2.00
7.65	5.70	4.53	2.12	0.71	8.54	8.25	8.06	8.00	8.06	7.62	7.28	7.07	7.00	7.07	6.71	6.32	6.08	6.00	6.08	5.83	5.39	5.10	5.00	5.10	5.00	4.47	4.12	4.00	4.12	4.24	3.61	3.16	3.00	3.16	3.61	2.83	2.24	2.00	2.24	3.16	2.24	1.41	1.00	1.41	3.00	2.00	1.00	1.00
7.52	6.36	4.53	2.92	1.58	8.94	8.54	8.25	8.06	8.00	8.06	7.62	7.28	7.07	7.00	7.21	6.71	6.32	6.08	6.00	6.40	5.83	5.39	5.10	5.00	5.66	5.00	4.47	4.12	4.00	5.00	4.24	3.61	3.16	3.00	4.47	3.61	2.83	2.24	2.00	4.12	3.16	2.24	1.41	1.00	4.00	3.00	2.00	1.00
];
